(set-logic QF_SLAH)

(declare-datatypes ((data_t 0)) (((c_data_t (sz Int)))))

(declare-heap (Int data_t))

(define-fun hck ((?x Int) (?y Int) (?v Int)) Bool
	(and
		(>= (- ?y ?x) 2) (<= (- ?y ?x) ?v)
		(sep (pto ?x (c_data_t (- ?y ?x))) (blk (+ ?x 1) ?y))
))

(define-fun-rec hls ((?x Int) (?y Int) (?v Int)) Bool
	(or
		(and (= ?x ?y) (_ emp Int data_t))
		(exists ((?w Int)) (sep (hck ?x ?w ?v) (hls ?w ?y ?v)))
))

(declare-const x0 Int)
(declare-const x1 Int)
(declare-const v0 Int)
(declare-const x2 Int)
(declare-const x3 Int)
(declare-const v2 Int)
(declare-const x4 Int)
(declare-const x5 Int)
(declare-const x6 Int)
(declare-const x7 Int)
(declare-const x8 Int)
(declare-const x9 Int)
(declare-const x10 Int)
(declare-const x11 Int)
(declare-const x12 Int)
(declare-const x13 Int)
(declare-const x14 Int)
(declare-const x15 Int)
(declare-const v14 Int)
(declare-const x16 Int)
(declare-const x17 Int)
(declare-const x18 Int)
(declare-const x19 Int)
(declare-const v18 Int)
(declare-const x20 Int)
(declare-const x21 Int)
(declare-const x22 Int)
(declare-const x23 Int)
(declare-const v22 Int)
(declare-const x24 Int)
(declare-const x25 Int)
(declare-const x26 Int)
(declare-const x27 Int)
(declare-const x28 Int)
(declare-const x29 Int)
(declare-const v28 Int)
(declare-const x30 Int)
(declare-const x31 Int)
(declare-const v30 Int)
(declare-const x32 Int)
(declare-const x33 Int)
(declare-const x34 Int)
(declare-const x35 Int)
(declare-const x36 Int)
(declare-const x37 Int)
(declare-const v36 Int)
(declare-const x38 Int)
(declare-const x39 Int)
(declare-const v38 Int)
(declare-const x40 Int)
(declare-const x41 Int)
(declare-const v40 Int)
(declare-const x42 Int)
(declare-const x43 Int)
(declare-const v42 Int)
(declare-const x44 Int)
(declare-const x45 Int)
(declare-const x46 Int)
(declare-const x47 Int)
(declare-const x48 Int)
(declare-const x49 Int)
(declare-const x50 Int)
(declare-const x51 Int)
(declare-const x52 Int)
(declare-const x53 Int)
(declare-const v52 Int)
(declare-const x54 Int)
(declare-const x55 Int)
(declare-const x56 Int)
(declare-const x57 Int)
(declare-const x58 Int)
(declare-const x59 Int)
(declare-const x60 Int)
(declare-const x61 Int)
(declare-const x62 Int)
(declare-const x63 Int)
(declare-const x64 Int)
(declare-const x65 Int)
(declare-const x66 Int)
(declare-const x67 Int)
(declare-const x68 Int)
(declare-const x69 Int)
(declare-const x70 Int)
(declare-const x71 Int)
(declare-const x72 Int)
(declare-const x73 Int)
(declare-const v72 Int)
(declare-const x74 Int)
(declare-const x75 Int)
(declare-const x76 Int)
(declare-const x77 Int)
(declare-const v76 Int)
(declare-const x78 Int)
(declare-const x79 Int)
(declare-const x80 Int)
(declare-const x81 Int)
(declare-const x82 Int)
(declare-const x83 Int)
(declare-const v82 Int)
(declare-const x84 Int)
(declare-const x85 Int)
(declare-const v84 Int)
(declare-const x86 Int)
(declare-const x87 Int)
(declare-const v86 Int)
(declare-const x88 Int)
(declare-const x89 Int)
(declare-const x90 Int)
(declare-const x91 Int)
(declare-const x92 Int)
(declare-const x93 Int)
(declare-const x94 Int)
(declare-const x95 Int)
(declare-const x96 Int)
(declare-const x97 Int)
(declare-const v96 Int)
(declare-const x98 Int)
(declare-const x99 Int)
(declare-const v98 Int)
(declare-const x100 Int)
(declare-const x101 Int)
(declare-const v100 Int)
(declare-const x102 Int)
(declare-const x103 Int)
(declare-const x104 Int)
(declare-const x105 Int)
(declare-const x106 Int)
(declare-const x107 Int)
(declare-const v106 Int)
(declare-const x108 Int)
(declare-const x109 Int)
(declare-const x110 Int)
(declare-const x111 Int)
(declare-const x112 Int)
(declare-const x113 Int)
(declare-const x114 Int)
(declare-const x115 Int)
(declare-const v114 Int)
(declare-const x116 Int)
(declare-const x117 Int)
(declare-const v116 Int)
(declare-const x118 Int)
(declare-const x119 Int)
(declare-const x120 Int)
(declare-const x121 Int)
(declare-const x122 Int)
(declare-const x123 Int)
(declare-const v122 Int)
(declare-const x124 Int)
(declare-const x125 Int)
(declare-const x126 Int)
(declare-const x127 Int)
(declare-const x128 Int)
(declare-const x129 Int)

(assert(and
(< x91 x22) (< x57 x121) (< x103 x70) (< x94 x76) (< x88 x80) (< x8 x41) (distinct x113 x121) (distinct x13 x112) (= x51 x106) (distinct x120 x119) (distinct x85 x1) (= x76 x64) (< x52 x115) (< x67 x72) 
(sep
(hls x0 x1 v0)
(hls x2 x3 v2)
(pto x4 (c_data_t x5))
(blk x6 x7)
(blk x8 x9)
(blk x10 x11)
(pto x12 (c_data_t x13))
(hls x14 x15 v14)
(blk x16 x17)
(hls x18 x19 v18)
(blk x20 x21)
(hls x22 x23 v22)
(pto x24 (c_data_t x25))
(blk x26 x27)
(hls x28 x29 v28)
(hls x30 x31 v30)
(blk x32 x33)
(pto x34 (c_data_t x35))
(hls x36 x37 v36)
(hls x38 x39 v38)
(hls x40 x41 v40)
(hls x42 x43 v42)
(blk x44 x45)
(blk x46 x47)
(pto x48 (c_data_t x49))
(pto x50 (c_data_t x51))
(hls x52 x53 v52)
(blk x54 x55)
(blk x56 x57)
(blk x58 x59)
(pto x60 (c_data_t x61))
(pto x62 (c_data_t x63))
(blk x64 x65)
(pto x66 (c_data_t x67))
(blk x68 x69)
(pto x70 (c_data_t x71))
(hls x72 x73 v72)
(pto x74 (c_data_t x75))
(hls x76 x77 v76)
(pto x78 (c_data_t x79))
(pto x80 (c_data_t x81))
(hls x82 x83 v82)
(hls x84 x85 v84)
(hls x86 x87 v86)
(pto x88 (c_data_t x89))
(pto x90 (c_data_t x91))
(pto x92 (c_data_t x93))
(blk x94 x95)
(hls x96 x97 v96)
(hls x98 x99 v98)
(hls x100 x101 v100)
(blk x102 x103)
(pto x104 (c_data_t x105))
(hls x106 x107 v106)
(pto x108 (c_data_t x109))
(pto x110 (c_data_t x111))
(blk x112 x113)
(hls x114 x115 v114)
(hls x116 x117 v116)
(blk x118 x119)
(blk x120 x121)
(hls x122 x123 v122)
(pto x124 (c_data_t x125))
(blk x126 x127)
(blk x128 x129)
)))

(check-sat)